instance_name = "short_n0461_r010_139";
instance_group = "short";
rsi_start = 0;
rsi_end = 139;
rsi_min_distance = 10;
rsi_max_distance = 139;
num_nodes = 461;
num_neighbors = 3223;
neighbors = [
[0, 1],
[0, 2],
[0, 10],
[0, 11],
[0, 16],
[0, 22],
[0, 25],
[0, 26],
[0, 27],
[0, 354],
[0, 360],
[0, 371],
[1, 2],
[1, 9],
[1, 10],
[1, 16],
[1, 22],
[1, 23],
[1, 26],
[2, 10],
[2, 16],
[2, 22],
[2, 23],
[2, 24],
[2, 26],
[2, 321],
[3, 4],
[3, 5],
[3, 7],
[3, 13],
[4, 5],
[4, 7],
[4, 13],
[4, 15],
[4, 27],
[5, 6],
[5, 7],
[5, 13],
[5, 14],
[5, 15],
[5, 27],
[5, 320],
[6, 12],
[6, 13],
[6, 14],
[6, 27],
[6, 28],
[6, 320],
[7, 13],
[7, 15],
[7, 16],
[7, 17],
[7, 27],
[7, 320],
[8, 12],
[8, 19],
[8, 28],
[8, 30],
[9, 10],
[9, 11],
[9, 25],
[9, 26],
[10, 11],
[10, 16],
[10, 22],
[10, 23],
[10, 25],
[10, 26],
[11, 16],
[11, 22],
[11, 25],
[11, 26],
[11, 27],
[12, 13],
[12, 14],
[12, 19],
[12, 28],
[12, 319],
[12, 320],
[12, 326],
[13, 14],
[13, 320],
[14, 21],
[14, 27],
[14, 319],
[14, 323],
[15, 16],
[15, 17],
[15, 25],
[15, 27],
[15, 320],
[16, 17],
[16, 22],
[16, 24],
[16, 25],
[16, 26],
[16, 27],
[16, 321],
[16, 354],
[16, 362],
[17, 27],
[17, 320],
[17, 321],
[17, 322],
[18, 19],
[18, 20],
[18, 30],
[19, 20],
[19, 21],
[19, 28],
[19, 29],
[19, 30],
[19, 323],
[20, 21],
[20, 30],
[21, 30],
[21, 319],
[21, 323],
[21, 324],
[22, 23],
[22, 24],
[22, 26],
[22, 27],
[23, 24],
[23, 26],
[24, 26],
[24, 27],
[24, 214],
[24, 303],
[24, 321],
[24, 354],
[25, 26],
[25, 27],
[25, 320],
[25, 325],
[25, 360],
[26, 27],
[26, 303],
[26, 354],
[26, 360],
[27, 320],
[27, 321],
[27, 322],
[28, 29],
[28, 30],
[29, 30],
[31, 32],
[31, 33],
[31, 71],
[31, 75],
[31, 83],
[31, 84],
[31, 88],
[31, 93],
[31, 107],
[31, 108],
[31, 111],
[31, 112],
[31, 113],
[31, 135],
[31, 328],
[31, 329],
[31, 330],
[31, 332],
[31, 333],
[31, 336],
[32, 33],
[32, 70],
[32, 107],
[32, 108],
[32, 109],
[32, 110],
[32, 111],
[32, 112],
[32, 115],
[32, 117],
[32, 118],
[32, 133],
[32, 134],
[32, 135],
[32, 309],
[32, 310],
[32, 311],
[32, 312],
[32, 313],
[32, 327],
[32, 328],
[32, 329],
[32, 330],
[32, 331],
[32, 332],
[32, 336],
[32, 337],
[33, 56],
[33, 72],
[33, 88],
[33, 107],
[33, 108],
[33, 110],
[33, 111],
[33, 112],
[33, 118],
[33, 135],
[33, 312],
[33, 327],
[33, 328],
[33, 329],
[33, 331],
[33, 333],
[33, 336],
[33, 337],
[33, 338],
[34, 35],
[34, 36],
[34, 41],
[34, 98],
[34, 99],
[34, 119],
[34, 122],
[34, 142],
[34, 143],
[34, 144],
[34, 236],
[34, 242],
[34, 243],
[34, 248],
[34, 249],
[34, 268],
[34, 289],
[34, 317],
[34, 318],
[34, 445],
[35, 36],
[35, 98],
[35, 99],
[35, 100],
[35, 119],
[35, 120],
[35, 121],
[35, 122],
[35, 123],
[35, 142],
[35, 143],
[35, 144],
[35, 146],
[35, 154],
[35, 155],
[35, 243],
[35, 289],
[35, 318],
[35, 451],
[35, 453],
[36, 41],
[36, 79],
[36, 98],
[36, 119],
[36, 121],
[36, 122],
[36, 142],
[36, 144],
[36, 243],
[36, 249],
[36, 318],
[37, 38],
[37, 39],
[37, 78],
[37, 123],
[37, 126],
[37, 146],
[37, 149],
[37, 151],
[37, 153],
[38, 39],
[38, 126],
[38, 146],
[38, 149],
[38, 150],
[38, 152],
[38, 153],
[38, 335],
[39, 42],
[39, 123],
[39, 126],
[39, 148],
[39, 149],
[39, 150],
[39, 151],
[39, 153],
[39, 451],
[40, 41],
[40, 42],
[40, 80],
[40, 81],
[40, 86],
[40, 121],
[40, 124],
[40, 125],
[40, 147],
[40, 234],
[40, 318],
[41, 42],
[41, 44],
[41, 79],
[41, 80],
[41, 81],
[41, 98],
[41, 121],
[41, 122],
[41, 123],
[41, 124],
[41, 125],
[41, 126],
[41, 144],
[41, 147],
[41, 151],
[41, 154],
[41, 234],
[41, 243],
[41, 318],
[42, 123],
[42, 124],
[42, 125],
[42, 126],
[42, 127],
[42, 147],
[42, 150],
[42, 151],
[42, 153],
[42, 318],
[43, 79],
[43, 234],
[43, 241],
[44, 122],
[45, 79],
[45, 81],
[45, 102],
[46, 47],
[46, 48],
[46, 56],
[46, 74],
[46, 95],
[46, 101],
[46, 134],
[46, 177],
[46, 202],
[46, 211],
[46, 213],
[46, 237],
[46, 244],
[46, 252],
[46, 337],
[47, 48],
[47, 74],
[47, 79],
[47, 83],
[47, 101],
[47, 117],
[47, 134],
[47, 151],
[47, 177],
[47, 202],
[47, 203],
[47, 211],
[47, 213],
[47, 237],
[47, 244],
[47, 247],
[47, 252],
[47, 337],
[48, 56],
[48, 57],
[48, 72],
[48, 83],
[48, 87],
[48, 95],
[48, 96],
[48, 101],
[48, 131],
[48, 132],
[48, 134],
[48, 140],
[48, 161],
[48, 202],
[48, 204],
[48, 211],
[48, 213],
[48, 237],
[48, 244],
[48, 247],
[48, 252],
[48, 327],
[48, 337],
[48, 338],
[49, 50],
[49, 51],
[49, 104],
[49, 136],
[49, 137],
[49, 165],
[49, 168],
[49, 216],
[49, 221],
[49, 306],
[50, 51],
[50, 58],
[50, 59],
[50, 60],
[50, 70],
[50, 104],
[50, 105],
[50, 137],
[50, 165],
[50, 171],
[50, 179],
[50, 181],
[50, 182],
[50, 183],
[50, 215],
[50, 216],
[50, 220],
[50, 302],
[51, 55],
[51, 60],
[51, 62],
[51, 63],
[51, 70],
[51, 71],
[51, 72],
[51, 75],
[51, 104],
[51, 105],
[51, 106],
[51, 136],
[51, 137],
[51, 138],
[51, 165],
[51, 171],
[51, 183],
[51, 216],
[51, 221],
[51, 224],
[51, 225],
[52, 53],
[52, 54],
[52, 87],
[52, 129],
[52, 161],
[52, 162],
[53, 54],
[53, 64],
[53, 86],
[53, 99],
[53, 102],
[53, 103],
[53, 119],
[53, 125],
[53, 147],
[53, 204],
[53, 234],
[53, 240],
[53, 246],
[53, 334],
[54, 64],
[54, 87],
[54, 103],
[54, 129],
[54, 162],
[54, 234],
[55, 56],
[55, 57],
[55, 61],
[55, 62],
[55, 63],
[55, 70],
[55, 72],
[55, 75],
[55, 95],
[55, 97],
[55, 104],
[55, 106],
[55, 130],
[55, 132],
[55, 135],
[55, 136],
[55, 138],
[55, 183],
[55, 221],
[55, 223],
[55, 224],
[55, 225],
[55, 336],
[55, 338],
[56, 57],
[56, 59],
[56, 62],
[56, 72],
[56, 74],
[56, 83],
[56, 95],
[56, 97],
[56, 101],
[56, 106],
[56, 128],
[56, 130],
[56, 131],
[56, 134],
[56, 135],
[56, 151],
[56, 161],
[56, 174],
[56, 177],
[56, 202],
[56, 203],
[56, 213],
[56, 221],
[56, 225],
[56, 237],
[56, 245],
[56, 246],
[56, 247],
[56, 316],
[56, 327],
[56, 328],
[56, 329],
[56, 336],
[56, 338],
[57, 62],
[57, 63],
[57, 72],
[57, 91],
[57, 95],
[57, 96],
[57, 97],
[57, 101],
[57, 106],
[57, 128],
[57, 130],
[57, 131],
[57, 132],
[57, 151],
[57, 183],
[57, 202],
[57, 225],
[57, 237],
[57, 244],
[57, 247],
[57, 316],
[57, 338],
[58, 59],
[58, 60],
[58, 70],
[58, 71],
[58, 105],
[58, 137],
[58, 159],
[58, 165],
[58, 171],
[58, 177],
[58, 179],
[58, 181],
[58, 182],
[58, 183],
[58, 192],
[58, 195],
[58, 198],
[58, 215],
[58, 216],
[58, 302],
[58, 339],
[58, 341],
[59, 60],
[59, 71],
[59, 73],
[59, 74],
[59, 75],
[59, 105],
[59, 117],
[59, 134],
[59, 159],
[59, 171],
[59, 177],
[59, 179],
[59, 182],
[59, 183],
[59, 192],
[59, 195],
[59, 198],
[59, 202],
[59, 203],
[59, 209],
[59, 244],
[59, 252],
[60, 70],
[60, 71],
[60, 73],
[60, 74],
[60, 75],
[60, 104],
[60, 105],
[60, 137],
[60, 171],
[60, 183],
[60, 195],
[60, 216],
[60, 302],
[61, 62],
[61, 63],
[61, 106],
[61, 136],
[61, 138],
[61, 221],
[61, 224],
[61, 225],
[62, 63],
[62, 70],
[62, 72],
[62, 95],
[62, 105],
[62, 106],
[62, 130],
[62, 138],
[62, 221],
[62, 224],
[62, 225],
[62, 338],
[63, 72],
[63, 75],
[63, 97],
[63, 106],
[63, 130],
[63, 132],
[63, 136],
[63, 138],
[63, 221],
[63, 225],
[64, 65],
[64, 66],
[64, 234],
[65, 66],
[65, 127],
[67, 68],
[67, 69],
[67, 92],
[67, 101],
[67, 103],
[67, 334],
[67, 335],
[68, 69],
[68, 85],
[68, 86],
[68, 103],
[68, 129],
[68, 334],
[68, 335],
[69, 85],
[69, 86],
[69, 87],
[69, 128],
[69, 129],
[69, 161],
[69, 162],
[69, 335],
[70, 71],
[70, 72],
[70, 75],
[70, 88],
[70, 104],
[70, 105],
[70, 106],
[70, 137],
[70, 138],
[70, 171],
[70, 183],
[70, 216],
[71, 72],
[71, 74],
[71, 75],
[71, 82],
[71, 83],
[71, 84],
[71, 88],
[71, 105],
[71, 108],
[71, 111],
[71, 135],
[71, 138],
[71, 171],
[71, 183],
[71, 402],
[72, 75],
[72, 88],
[72, 90],
[72, 92],
[72, 95],
[72, 97],
[72, 106],
[72, 107],
[72, 130],
[72, 132],
[72, 138],
[72, 171],
[72, 183],
[72, 221],
[72, 225],
[72, 336],
[72, 338],
[73, 74],
[73, 75],
[73, 82],
[73, 105],
[74, 75],
[74, 82],
[74, 83],
[74, 89],
[74, 94],
[74, 105],
[74, 117],
[74, 133],
[74, 134],
[74, 171],
[74, 177],
[74, 183],
[74, 211],
[74, 244],
[74, 252],
[74, 327],
[74, 337],
[75, 82],
[75, 88],
[75, 104],
[75, 105],
[75, 106],
[75, 137],
[75, 138],
[75, 171],
[75, 183],
[76, 77],
[76, 78],
[76, 123],
[77, 78],
[77, 123],
[77, 154],
[78, 146],
[79, 80],
[79, 81],
[79, 98],
[79, 101],
[79, 102],
[79, 121],
[79, 124],
[79, 234],
[79, 240],
[79, 241],
[79, 249],
[79, 318],
[79, 334],
[79, 335],
[80, 81],
[80, 124],
[80, 125],
[80, 147],
[80, 234],
[80, 246],
[80, 318],
[81, 102],
[81, 124],
[81, 125],
[81, 151],
[81, 234],
[81, 255],
[81, 318],
[82, 83],
[82, 84],
[82, 89],
[82, 105],
[82, 116],
[83, 84],
[83, 88],
[83, 89],
[83, 93],
[83, 94],
[83, 107],
[83, 109],
[83, 111],
[83, 112],
[83, 113],
[83, 114],
[83, 115],
[83, 116],
[83, 117],
[83, 118],
[83, 133],
[83, 134],
[83, 244],
[83, 327],
[83, 328],
[83, 329],
[83, 330],
[83, 331],
[83, 332],
[84, 88],
[84, 89],
[84, 93],
[84, 94],
[84, 105],
[84, 107],
[84, 108],
[84, 111],
[84, 113],
[84, 116],
[84, 328],
[85, 86],
[85, 87],
[85, 128],
[85, 129],
[85, 161],
[85, 162],
[85, 335],
[86, 87],
[86, 101],
[86, 103],
[86, 129],
[86, 334],
[86, 335],
[87, 129],
[87, 161],
[87, 162],
[87, 234],
[88, 89],
[88, 93],
[88, 94],
[88, 105],
[88, 107],
[88, 108],
[88, 111],
[88, 113],
[88, 115],
[88, 116],
[88, 328],
[88, 329],
[88, 332],
[88, 333],
[89, 93],
[89, 94],
[89, 112],
[89, 113],
[89, 114],
[89, 115],
[89, 116],
[89, 117],
[89, 133],
[89, 328],
[89, 329],
[89, 332],
[90, 91],
[90, 92],
[90, 101],
[90, 128],
[90, 160],
[90, 161],
[91, 92],
[91, 96],
[91, 97],
[91, 101],
[91, 128],
[91, 131],
[91, 141],
[91, 161],
[92, 96],
[92, 101],
[92, 102],
[92, 128],
[92, 161],
[92, 204],
[92, 334],
[92, 335],
[93, 94],
[93, 107],
[93, 108],
[93, 109],
[93, 111],
[93, 112],
[93, 113],
[93, 115],
[93, 116],
[93, 133],
[93, 328],
[93, 329],
[93, 330],
[93, 331],
[93, 332],
[93, 333],
[94, 107],
[94, 108],
[94, 109],
[94, 110],
[94, 111],
[94, 112],
[94, 113],
[94, 114],
[94, 115],
[94, 116],
[94, 117],
[94, 118],
[94, 133],
[94, 328],
[94, 329],
[94, 330],
[94, 331],
[94, 332],
[94, 333],
[95, 96],
[95, 97],
[95, 101],
[95, 130],
[95, 131],
[95, 135],
[95, 136],
[95, 327],
[95, 337],
[95, 338],
[96, 97],
[96, 101],
[96, 128],
[96, 131],
[96, 139],
[96, 140],
[96, 141],
[96, 161],
[96, 202],
[96, 204],
[96, 213],
[96, 327],
[96, 338],
[97, 101],
[97, 106],
[97, 130],
[97, 131],
[97, 132],
[97, 139],
[97, 221],
[97, 225],
[97, 247],
[97, 338],
[98, 99],
[98, 100],
[98, 101],
[98, 119],
[98, 120],
[98, 121],
[98, 122],
[98, 142],
[98, 143],
[98, 144],
[98, 151],
[98, 154],
[98, 155],
[98, 241],
[98, 243],
[98, 318],
[99, 100],
[99, 120],
[99, 122],
[99, 123],
[99, 143],
[99, 152],
[99, 155],
[99, 242],
[99, 243],
[99, 262],
[99, 266],
[99, 274],
[99, 289],
[100, 120],
[100, 122],
[100, 123],
[100, 146],
[100, 147],
[100, 151],
[100, 154],
[100, 155],
[101, 102],
[101, 103],
[101, 128],
[101, 130],
[101, 131],
[101, 132],
[101, 161],
[101, 202],
[101, 203],
[101, 204],
[101, 211],
[101, 213],
[101, 225],
[101, 234],
[101, 237],
[101, 244],
[101, 246],
[101, 334],
[101, 335],
[101, 337],
[101, 338],
[102, 103],
[102, 121],
[102, 161],
[102, 204],
[102, 234],
[102, 246],
[102, 335],
[103, 125],
[103, 129],
[103, 147],
[103, 204],
[103, 213],
[103, 246],
[103, 334],
[103, 335],
[104, 105],
[104, 106],
[104, 136],
[104, 137],
[104, 138],
[104, 214],
[104, 221],
[104, 224],
[105, 106],
[105, 137],
[105, 138],
[105, 171],
[105, 183],
[105, 195],
[105, 244],
[105, 336],
[105, 402],
[106, 132],
[106, 136],
[106, 138],
[106, 221],
[106, 224],
[106, 225],
[107, 108],
[107, 109],
[107, 110],
[107, 111],
[107, 112],
[107, 115],
[107, 133],
[107, 135],
[107, 312],
[107, 327],
[107, 328],
[107, 329],
[107, 330],
[107, 331],
[107, 332],
[107, 333],
[107, 338],
[108, 109],
[108, 110],
[108, 111],
[108, 112],
[108, 115],
[108, 133],
[108, 135],
[108, 312],
[108, 328],
[108, 329],
[108, 330],
[108, 331],
[108, 332],
[108, 333],
[108, 336],
[109, 110],
[109, 115],
[109, 116],
[109, 117],
[109, 118],
[109, 133],
[109, 134],
[109, 135],
[109, 307],
[109, 308],
[109, 309],
[109, 312],
[109, 314],
[109, 315],
[109, 328],
[109, 330],
[109, 331],
[110, 118],
[110, 133],
[110, 134],
[110, 135],
[110, 309],
[110, 310],
[110, 311],
[110, 312],
[110, 313],
[110, 314],
[110, 328],
[110, 329],
[110, 330],
[110, 331],
[110, 337],
[111, 112],
[111, 328],
[111, 329],
[111, 332],
[111, 333],
[112, 113],
[112, 115],
[112, 328],
[112, 329],
[112, 331],
[112, 332],
[112, 333],
[113, 114],
[113, 115],
[113, 116],
[113, 328],
[113, 332],
[114, 115],
[114, 116],
[115, 116],
[115, 118],
[115, 328],
[115, 329],
[115, 330],
[115, 332],
[116, 117],
[116, 118],
[116, 133],
[116, 327],
[116, 328],
[116, 329],
[116, 330],
[116, 331],
[116, 332],
[117, 118],
[117, 133],
[117, 134],
[117, 211],
[117, 244],
[117, 327],
[117, 328],
[117, 330],
[117, 331],
[117, 337],
[118, 133],
[118, 134],
[118, 135],
[118, 307],
[118, 308],
[118, 309],
[118, 310],
[118, 311],
[118, 312],
[118, 313],
[118, 314],
[118, 315],
[118, 327],
[118, 328],
[118, 329],
[118, 330],
[118, 331],
[119, 120],
[119, 121],
[119, 142],
[119, 143],
[119, 144],
[119, 242],
[119, 243],
[119, 318],
[120, 121],
[120, 122],
[120, 123],
[120, 154],
[120, 155],
[121, 122],
[121, 124],
[121, 144],
[121, 151],
[121, 154],
[121, 234],
[121, 243],
[121, 318],
[122, 123],
[122, 124],
[122, 144],
[122, 151],
[122, 154],
[122, 243],
[122, 318],
[123, 124],
[123, 126],
[123, 144],
[123, 146],
[123, 147],
[123, 150],
[123, 151],
[123, 152],
[123, 153],
[123, 154],
[123, 155],
[123, 156],
[123, 318],
[124, 125],
[124, 126],
[124, 127],
[124, 144],
[124, 147],
[124, 151],
[124, 154],
[125, 126],
[125, 127],
[125, 147],
[125, 151],
[126, 127],
[126, 146],
[126, 147],
[126, 150],
[126, 151],
[126, 152],
[126, 153],
[127, 153],
[128, 129],
[128, 160],
[128, 161],
[128, 202],
[128, 334],
[128, 335],
[129, 161],
[129, 162],
[129, 334],
[129, 335],
[130, 131],
[130, 132],
[130, 225],
[130, 338],
[131, 132],
[131, 139],
[131, 140],
[131, 141],
[131, 204],
[131, 219],
[132, 221],
[132, 225],
[132, 338],
[133, 134],
[133, 135],
[133, 307],
[133, 308],
[133, 309],
[133, 310],
[133, 311],
[133, 312],
[133, 313],
[133, 314],
[133, 315],
[133, 327],
[133, 328],
[133, 330],
[133, 331],
[134, 135],
[134, 211],
[134, 244],
[134, 327],
[134, 328],
[134, 330],
[134, 331],
[134, 337],
[134, 407],
[135, 310],
[135, 311],
[135, 312],
[135, 327],
[135, 328],
[135, 329],
[135, 330],
[135, 331],
[135, 336],
[135, 337],
[135, 338],
[136, 137],
[136, 138],
[136, 221],
[136, 222],
[136, 223],
[136, 224],
[136, 225],
[137, 138],
[137, 171],
[137, 178],
[137, 179],
[137, 183],
[137, 186],
[137, 214],
[137, 215],
[137, 216],
[137, 220],
[137, 221],
[137, 306],
[137, 339],
[137, 341],
[138, 221],
[138, 224],
[138, 225],
[139, 140],
[139, 141],
[140, 141],
[140, 327],
[141, 161],
[142, 143],
[142, 144],
[142, 241],
[142, 242],
[142, 243],
[142, 249],
[142, 286],
[142, 318],
[143, 144],
[143, 242],
[143, 268],
[143, 289],
[143, 317],
[143, 318],
[144, 151],
[144, 154],
[144, 240],
[144, 318],
[145, 146],
[145, 147],
[146, 147],
[146, 150],
[146, 151],
[146, 152],
[146, 153],
[146, 154],
[146, 155],
[146, 156],
[146, 318],
[147, 148],
[147, 151],
[147, 153],
[147, 154],
[147, 155],
[147, 156],
[148, 149],
[148, 150],
[148, 151],
[148, 153],
[149, 150],
[149, 153],
[150, 151],
[150, 153],
[150, 318],
[150, 451],
[151, 152],
[151, 153],
[151, 154],
[151, 155],
[151, 156],
[151, 203],
[151, 237],
[151, 244],
[151, 318],
[152, 153],
[152, 155],
[152, 266],
[153, 318],
[154, 155],
[154, 156],
[154, 318],
[155, 156],
[155, 262],
[155, 266],
[155, 274],
[155, 289],
[157, 158],
[157, 159],
[157, 169],
[157, 172],
[157, 187],
[157, 188],
[157, 189],
[157, 190],
[157, 200],
[157, 201],
[157, 206],
[157, 207],
[157, 209],
[157, 210],
[157, 217],
[157, 218],
[157, 219],
[157, 301],
[158, 159],
[158, 170],
[158, 172],
[158, 173],
[158, 175],
[158, 187],
[158, 188],
[158, 190],
[158, 193],
[158, 199],
[158, 200],
[158, 201],
[158, 206],
[158, 209],
[158, 215],
[158, 218],
[158, 339],
[158, 341],
[158, 375],
[158, 378],
[158, 379],
[158, 380],
[158, 383],
[159, 169],
[159, 170],
[159, 171],
[159, 172],
[159, 173],
[159, 174],
[159, 177],
[159, 182],
[159, 183],
[159, 188],
[159, 190],
[159, 191],
[159, 192],
[159, 193],
[159, 195],
[159, 196],
[159, 197],
[159, 198],
[159, 200],
[159, 244],
[160, 161],
[160, 162],
[160, 225],
[161, 162],
[161, 202],
[161, 203],
[161, 204],
[161, 213],
[161, 234],
[161, 237],
[161, 244],
[161, 246],
[161, 327],
[161, 334],
[161, 335],
[161, 337],
[162, 327],
[163, 164],
[163, 165],
[163, 178],
[163, 180],
[163, 185],
[163, 210],
[163, 215],
[163, 301],
[163, 302],
[163, 303],
[163, 304],
[163, 342],
[163, 349],
[163, 351],
[163, 354],
[163, 380],
[164, 165],
[164, 166],
[164, 167],
[164, 189],
[164, 190],
[164, 207],
[164, 208],
[164, 210],
[164, 217],
[164, 301],
[164, 380],
[165, 166],
[165, 169],
[165, 171],
[165, 179],
[165, 181],
[165, 183],
[165, 189],
[165, 190],
[165, 192],
[165, 207],
[165, 210],
[165, 215],
[165, 216],
[165, 302],
[165, 305],
[166, 167],
[166, 168],
[166, 189],
[166, 199],
[166, 207],
[166, 210],
[166, 217],
[166, 301],
[166, 380],
[167, 168],
[167, 171],
[167, 190],
[167, 193],
[167, 199],
[167, 201],
[167, 205],
[167, 210],
[167, 217],
[167, 339],
[167, 342],
[167, 349],
[167, 351],
[167, 380],
[168, 189],
[168, 207],
[168, 210],
[168, 217],
[169, 170],
[169, 171],
[169, 179],
[169, 181],
[169, 189],
[169, 190],
[169, 192],
[169, 196],
[169, 201],
[169, 207],
[169, 209],
[169, 210],
[169, 215],
[169, 219],
[169, 302],
[169, 305],
[170, 171],
[170, 173],
[170, 174],
[170, 175],
[170, 176],
[170, 177],
[170, 182],
[170, 190],
[170, 191],
[170, 192],
[170, 193],
[170, 195],
[170, 196],
[170, 197],
[170, 198],
[170, 199],
[170, 200],
[170, 201],
[170, 377],
[171, 174],
[171, 177],
[171, 179],
[171, 181],
[171, 182],
[171, 183],
[171, 189],
[171, 192],
[171, 195],
[171, 196],
[171, 198],
[171, 200],
[171, 206],
[171, 207],
[171, 210],
[171, 213],
[171, 215],
[171, 216],
[171, 219],
[171, 225],
[171, 244],
[171, 252],
[171, 302],
[171, 305],
[171, 328],
[171, 380],
[172, 173],
[172, 174],
[172, 187],
[172, 188],
[172, 191],
[172, 200],
[172, 218],
[173, 174],
[173, 175],
[173, 176],
[173, 188],
[173, 191],
[173, 193],
[173, 194],
[173, 196],
[173, 197],
[173, 199],
[173, 200],
[173, 206],
[173, 209],
[173, 215],
[173, 218],
[173, 341],
[173, 375],
[173, 376],
[173, 377],
[173, 379],
[173, 380],
[174, 191],
[174, 192],
[174, 193],
[174, 196],
[175, 176],
[175, 177],
[175, 193],
[175, 194],
[175, 197],
[175, 199],
[175, 214],
[175, 301],
[175, 375],
[175, 377],
[175, 379],
[175, 380],
[175, 383],
[176, 177],
[176, 191],
[176, 194],
[176, 197],
[176, 345],
[176, 376],
[176, 377],
[176, 379],
[177, 182],
[177, 183],
[177, 191],
[177, 192],
[177, 194],
[177, 195],
[177, 197],
[177, 198],
[177, 200],
[177, 211],
[177, 215],
[177, 244],
[177, 302],
[177, 402],
[178, 179],
[178, 180],
[178, 184],
[178, 185],
[178, 214],
[178, 215],
[178, 217],
[178, 220],
[178, 301],
[178, 303],
[178, 304],
[178, 305],
[178, 339],
[178, 342],
[178, 349],
[178, 350],
[178, 353],
[178, 354],
[178, 362],
[178, 380],
[179, 180],
[179, 183],
[179, 186],
[179, 190],
[179, 210],
[179, 214],
[179, 215],
[179, 216],
[179, 244],
[179, 302],
[179, 303],
[179, 305],
[179, 306],
[180, 184],
[180, 185],
[180, 186],
[180, 214],
[180, 216],
[180, 220],
[180, 222],
[180, 303],
[180, 304],
[180, 305],
[180, 306],
[180, 362],
[181, 182],
[181, 183],
[181, 190],
[181, 192],
[181, 198],
[181, 215],
[181, 301],
[181, 302],
[181, 339],
[181, 340],
[181, 356],
[182, 183],
[182, 192],
[182, 195],
[182, 198],
[182, 215],
[182, 379],
[183, 192],
[183, 195],
[183, 198],
[183, 215],
[183, 216],
[183, 219],
[183, 225],
[183, 244],
[183, 302],
[183, 305],
[183, 316],
[183, 327],
[183, 380],
[184, 185],
[184, 186],
[184, 214],
[184, 217],
[184, 220],
[184, 303],
[184, 304],
[184, 305],
[184, 306],
[184, 321],
[184, 354],
[184, 362],
[185, 186],
[185, 214],
[185, 301],
[185, 303],
[185, 304],
[185, 305],
[185, 349],
[186, 214],
[186, 216],
[186, 220],
[186, 305],
[186, 306],
[187, 188],
[187, 189],
[187, 190],
[187, 193],
[187, 199],
[187, 200],
[187, 201],
[187, 206],
[187, 208],
[187, 209],
[187, 218],
[187, 339],
[187, 341],
[187, 378],
[187, 379],
[187, 380],
[188, 189],
[188, 190],
[188, 200],
[188, 201],
[188, 206],
[188, 209],
[188, 218],
[188, 219],
[189, 190],
[189, 201],
[189, 206],
[189, 207],
[189, 209],
[189, 210],
[189, 215],
[189, 217],
[189, 218],
[189, 219],
[189, 301],
[189, 302],
[189, 380],
[190, 191],
[190, 192],
[190, 196],
[190, 199],
[190, 200],
[190, 206],
[190, 207],
[190, 209],
[190, 210],
[190, 214],
[190, 215],
[190, 217],
[190, 218],
[190, 219],
[190, 301],
[190, 302],
[190, 305],
[190, 380],
[191, 192],
[191, 193],
[191, 195],
[191, 196],
[191, 197],
[191, 200],
[192, 195],
[192, 196],
[192, 198],
[192, 201],
[192, 215],
[192, 219],
[193, 194],
[193, 195],
[193, 196],
[193, 197],
[193, 199],
[193, 200],
[193, 208],
[193, 218],
[193, 301],
[193, 304],
[193, 342],
[193, 375],
[193, 378],
[193, 379],
[193, 380],
[193, 383],
[194, 195],
[194, 197],
[194, 376],
[194, 377],
[194, 379],
[195, 196],
[195, 197],
[195, 198],
[195, 244],
[196, 197],
[196, 198],
[196, 200],
[196, 201],
[196, 379],
[196, 380],
[197, 198],
[197, 200],
[199, 200],
[199, 201],
[199, 205],
[199, 208],
[199, 218],
[199, 301],
[199, 341],
[199, 342],
[199, 351],
[199, 375],
[199, 378],
[199, 379],
[199, 380],
[199, 381],
[199, 382],
[199, 383],
[200, 201],
[200, 203],
[200, 206],
[200, 209],
[200, 218],
[200, 379],
[201, 205],
[201, 206],
[201, 207],
[201, 208],
[201, 209],
[201, 210],
[201, 218],
[201, 219],
[201, 302],
[201, 380],
[202, 203],
[202, 204],
[202, 211],
[202, 213],
[202, 237],
[202, 244],
[202, 247],
[202, 252],
[202, 337],
[203, 204],
[203, 211],
[203, 212],
[203, 213],
[203, 232],
[203, 234],
[203, 237],
[203, 238],
[203, 241],
[203, 244],
[203, 245],
[203, 246],
[203, 247],
[203, 251],
[203, 252],
[203, 253],
[203, 255],
[203, 334],
[203, 337],
[203, 404],
[204, 213],
[204, 234],
[204, 237],
[204, 246],
[204, 247],
[204, 255],
[204, 316],
[204, 334],
[205, 206],
[205, 207],
[205, 208],
[205, 209],
[205, 210],
[205, 301],
[205, 339],
[205, 378],
[205, 380],
[206, 207],
[206, 209],
[206, 217],
[206, 218],
[206, 219],
[207, 210],
[207, 215],
[207, 217],
[207, 219],
[207, 301],
[207, 302],
[208, 209],
[208, 210],
[208, 301],
[208, 339],
[208, 341],
[208, 342],
[208, 348],
[208, 351],
[208, 375],
[208, 378],
[208, 379],
[208, 380],
[208, 381],
[209, 210],
[209, 217],
[209, 218],
[210, 214],
[210, 215],
[210, 217],
[210, 301],
[210, 302],
[210, 342],
[210, 380],
[211, 212],
[211, 213],
[211, 244],
[211, 247],
[211, 252],
[211, 337],
[211, 404],
[212, 213],
[212, 244],
[212, 245],
[212, 246],
[212, 250],
[212, 252],
[212, 401],
[213, 237],
[213, 244],
[213, 246],
[213, 252],
[213, 334],
[213, 335],
[213, 337],
[214, 215],
[214, 216],
[214, 220],
[214, 301],
[214, 303],
[214, 304],
[214, 305],
[214, 306],
[214, 354],
[214, 362],
[214, 380],
[215, 216],
[215, 217],
[215, 302],
[215, 303],
[215, 305],
[215, 339],
[215, 402],
[216, 220],
[216, 225],
[216, 302],
[216, 306],
[217, 218],
[217, 219],
[217, 301],
[217, 303],
[217, 304],
[217, 342],
[217, 354],
[217, 362],
[217, 380],
[218, 219],
[218, 379],
[218, 380],
[219, 302],
[220, 221],
[220, 222],
[220, 224],
[220, 303],
[220, 304],
[220, 306],
[220, 339],
[220, 352],
[220, 354],
[220, 362],
[221, 222],
[221, 223],
[221, 224],
[221, 225],
[221, 306],
[222, 223],
[222, 224],
[222, 303],
[222, 306],
[222, 362],
[223, 224],
[223, 225],
[224, 225],
[225, 306],
[226, 227],
[226, 228],
[226, 231],
[226, 256],
[226, 257],
[226, 258],
[226, 264],
[226, 267],
[226, 283],
[226, 285],
[226, 288],
[227, 228],
[227, 231],
[227, 256],
[227, 257],
[227, 283],
[227, 288],
[227, 448],
[227, 451],
[228, 257],
[228, 283],
[228, 284],
[228, 288],
[228, 451],
[229, 230],
[229, 231],
[229, 256],
[229, 269],
[229, 270],
[229, 280],
[229, 282],
[229, 286],
[229, 287],
[229, 288],
[229, 447],
[229, 451],
[230, 231],
[230, 282],
[231, 256],
[231, 283],
[231, 288],
[231, 451],
[232, 233],
[232, 234],
[232, 235],
[232, 237],
[232, 238],
[232, 244],
[232, 246],
[232, 251],
[232, 252],
[232, 253],
[232, 254],
[232, 255],
[232, 404],
[233, 234],
[233, 235],
[233, 236],
[233, 237],
[233, 238],
[233, 240],
[233, 247],
[233, 254],
[234, 236],
[234, 237],
[234, 240],
[234, 241],
[234, 246],
[234, 247],
[234, 249],
[234, 255],
[234, 318],
[234, 334],
[235, 236],
[235, 237],
[235, 238],
[235, 239],
[235, 240],
[235, 247],
[235, 250],
[235, 253],
[235, 254],
[235, 316],
[235, 404],
[236, 237],
[236, 238],
[236, 240],
[236, 243],
[236, 247],
[236, 254],
[237, 238],
[237, 240],
[237, 241],
[237, 244],
[237, 246],
[237, 247],
[237, 251],
[237, 252],
[237, 253],
[237, 254],
[237, 255],
[237, 334],
[237, 404],
[238, 239],
[238, 240],
[238, 244],
[238, 247],
[238, 250],
[238, 251],
[238, 252],
[238, 253],
[238, 254],
[238, 255],
[238, 404],
[239, 240],
[239, 241],
[239, 242],
[239, 247],
[239, 248],
[239, 254],
[239, 316],
[239, 318],
[239, 391],
[239, 404],
[239, 408],
[239, 410],
[240, 241],
[240, 242],
[240, 243],
[240, 247],
[240, 248],
[240, 249],
[240, 255],
[240, 318],
[240, 404],
[241, 242],
[241, 243],
[241, 244],
[241, 247],
[241, 248],
[241, 249],
[241, 316],
[241, 318],
[242, 243],
[242, 248],
[242, 249],
[242, 289],
[242, 316],
[242, 317],
[242, 318],
[243, 248],
[243, 249],
[243, 318],
[244, 245],
[244, 246],
[244, 247],
[244, 252],
[244, 253],
[244, 302],
[244, 316],
[244, 327],
[244, 337],
[244, 377],
[244, 392],
[244, 401],
[244, 404],
[245, 246],
[245, 250],
[245, 252],
[245, 253],
[245, 254],
[245, 392],
[245, 400],
[245, 401],
[245, 402],
[245, 404],
[246, 247],
[246, 251],
[246, 252],
[246, 253],
[246, 255],
[246, 404],
[247, 248],
[247, 249],
[247, 255],
[247, 318],
[248, 249],
[248, 254],
[248, 316],
[248, 318],
[248, 408],
[248, 410],
[249, 318],
[250, 251],
[250, 252],
[250, 253],
[250, 254],
[250, 392],
[250, 400],
[250, 401],
[250, 402],
[250, 404],
[251, 252],
[251, 253],
[251, 255],
[251, 316],
[251, 404],
[252, 253],
[252, 255],
[252, 337],
[252, 338],
[252, 404],
[253, 254],
[253, 316],
[253, 404],
[254, 316],
[254, 402],
[254, 404],
[255, 404],
[256, 257],
[256, 258],
[256, 267],
[256, 282],
[256, 283],
[256, 285],
[256, 287],
[256, 288],
[256, 451],
[257, 258],
[257, 283],
[257, 288],
[257, 451],
[258, 283],
[258, 284],
[258, 285],
[258, 288],
[259, 260],
[259, 261],
[259, 272],
[259, 273],
[259, 277],
[260, 261],
[260, 272],
[260, 277],
[260, 278],
[260, 279],
[260, 297],
[260, 300],
[260, 445],
[261, 269],
[261, 273],
[261, 278],
[261, 279],
[261, 286],
[261, 292],
[261, 293],
[261, 445],
[262, 263],
[262, 264],
[262, 266],
[262, 268],
[262, 270],
[262, 275],
[262, 276],
[262, 286],
[262, 289],
[262, 290],
[262, 291],
[263, 264],
[263, 267],
[263, 268],
[263, 269],
[263, 270],
[263, 280],
[263, 286],
[263, 287],
[263, 290],
[263, 293],
[263, 294],
[263, 446],
[263, 447],
[264, 265],
[264, 266],
[264, 267],
[264, 276],
[264, 285],
[264, 288],
[265, 266],
[265, 267],
[265, 276],
[266, 267],
[266, 274],
[266, 275],
[266, 276],
[266, 291],
[267, 270],
[267, 285],
[267, 286],
[267, 288],
[267, 447],
[267, 456],
[268, 269],
[268, 270],
[268, 273],
[268, 275],
[268, 279],
[268, 286],
[268, 289],
[268, 290],
[268, 292],
[269, 270],
[269, 273],
[269, 275],
[269, 278],
[269, 279],
[269, 280],
[269, 286],
[269, 287],
[269, 290],
[269, 292],
[269, 293],
[269, 294],
[269, 397],
[269, 413],
[269, 419],
[269, 445],
[269, 446],
[269, 447],
[269, 454],
[270, 279],
[270, 280],
[270, 286],
[270, 287],
[270, 288],
[270, 290],
[270, 294],
[270, 447],
[271, 272],
[271, 273],
[271, 277],
[271, 279],
[271, 406],
[272, 273],
[272, 277],
[272, 445],
[273, 278],
[273, 279],
[273, 280],
[273, 286],
[273, 292],
[273, 293],
[273, 445],
[273, 447],
[274, 275],
[274, 276],
[274, 291],
[275, 276],
[275, 279],
[275, 286],
[275, 289],
[275, 290],
[275, 291],
[275, 292],
[276, 291],
[277, 278],
[277, 279],
[277, 296],
[277, 297],
[277, 300],
[277, 406],
[277, 445],
[278, 279],
[278, 280],
[278, 286],
[278, 287],
[278, 293],
[278, 297],
[278, 413],
[278, 438],
[278, 442],
[278, 443],
[278, 445],
[278, 446],
[278, 447],
[278, 456],
[279, 286],
[279, 289],
[279, 290],
[279, 292],
[279, 293],
[279, 294],
[279, 445],
[280, 281],
[280, 282],
[280, 283],
[280, 286],
[280, 287],
[280, 293],
[280, 445],
[280, 447],
[281, 282],
[281, 287],
[281, 447],
[281, 454],
[282, 283],
[282, 287],
[282, 415],
[282, 438],
[282, 439],
[282, 444],
[282, 447],
[282, 449],
[282, 451],
[282, 457],
[283, 284],
[283, 285],
[283, 288],
[283, 451],
[284, 285],
[284, 448],
[285, 288],
[286, 287],
[286, 288],
[286, 289],
[286, 290],
[286, 292],
[286, 293],
[286, 294],
[286, 445],
[286, 447],
[287, 288],
[287, 293],
[287, 447],
[288, 447],
[288, 451],
[289, 290],
[289, 291],
[289, 292],
[290, 291],
[290, 292],
[290, 294],
[290, 447],
[292, 293],
[292, 294],
[292, 445],
[293, 294],
[293, 445],
[293, 447],
[294, 447],
[295, 296],
[295, 297],
[295, 298],
[295, 300],
[295, 395],
[295, 396],
[295, 454],
[296, 297],
[296, 299],
[296, 300],
[296, 397],
[296, 445],
[296, 446],
[296, 454],
[296, 456],
[297, 300],
[297, 406],
[297, 445],
[298, 299],
[298, 300],
[298, 395],
[298, 396],
[298, 397],
[298, 398],
[298, 454],
[299, 300],
[299, 395],
[299, 397],
[299, 398],
[299, 412],
[299, 428],
[299, 435],
[299, 446],
[299, 454],
[299, 455],
[299, 456],
[300, 395],
[300, 406],
[300, 445],
[301, 302],
[301, 303],
[301, 304],
[301, 305],
[301, 339],
[301, 340],
[301, 341],
[301, 342],
[301, 349],
[301, 350],
[301, 351],
[301, 353],
[301, 375],
[301, 376],
[301, 378],
[301, 379],
[301, 380],
[301, 383],
[302, 303],
[302, 305],
[303, 304],
[303, 305],
[303, 342],
[303, 349],
[303, 354],
[303, 362],
[303, 380],
[304, 305],
[304, 306],
[304, 321],
[304, 339],
[304, 349],
[304, 350],
[304, 353],
[304, 354],
[304, 362],
[304, 380],
[305, 306],
[305, 380],
[305, 402],
[307, 308],
[307, 309],
[307, 310],
[307, 311],
[307, 312],
[307, 314],
[307, 315],
[307, 328],
[307, 330],
[307, 331],
[308, 309],
[308, 310],
[308, 311],
[308, 312],
[308, 313],
[308, 314],
[308, 315],
[308, 328],
[308, 331],
[309, 310],
[309, 311],
[309, 312],
[309, 313],
[309, 314],
[309, 315],
[309, 328],
[309, 331],
[310, 311],
[310, 312],
[310, 313],
[310, 314],
[310, 315],
[310, 331],
[311, 312],
[311, 313],
[311, 314],
[311, 315],
[311, 331],
[312, 313],
[312, 314],
[312, 315],
[312, 328],
[312, 331],
[313, 314],
[313, 315],
[313, 331],
[314, 315],
[314, 328],
[314, 331],
[315, 328],
[315, 330],
[315, 331],
[316, 317],
[316, 318],
[316, 386],
[316, 389],
[316, 391],
[316, 392],
[316, 402],
[316, 403],
[316, 404],
[316, 408],
[316, 410],
[316, 445],
[317, 318],
[317, 403],
[317, 406],
[317, 407],
[317, 410],
[319, 323],
[319, 324],
[320, 321],
[320, 322],
[321, 322],
[327, 328],
[327, 330],
[327, 331],
[327, 337],
[328, 329],
[328, 330],
[328, 331],
[328, 332],
[328, 333],
[328, 337],
[329, 332],
[329, 333],
[329, 336],
[330, 331],
[330, 337],
[331, 337],
[332, 333],
[334, 335],
[336, 337],
[336, 338],
[337, 338],
[339, 340],
[339, 341],
[339, 348],
[339, 350],
[339, 352],
[339, 353],
[339, 378],
[340, 341],
[340, 342],
[340, 348],
[340, 349],
[340, 350],
[340, 351],
[340, 353],
[340, 378],
[341, 342],
[341, 350],
[341, 351],
[341, 353],
[341, 375],
[341, 376],
[341, 377],
[341, 378],
[341, 379],
[341, 380],
[341, 381],
[341, 382],
[341, 383],
[342, 349],
[342, 350],
[342, 351],
[342, 353],
[342, 375],
[342, 378],
[342, 380],
[342, 381],
[343, 344],
[343, 345],
[343, 376],
[343, 377],
[343, 379],
[344, 345],
[345, 353],
[345, 372],
[345, 377],
[346, 347],
[346, 348],
[346, 350],
[346, 353],
[347, 348],
[347, 350],
[347, 353],
[348, 350],
[348, 351],
[348, 353],
[348, 378],
[349, 350],
[349, 351],
[349, 353],
[349, 354],
[349, 375],
[349, 380],
[350, 351],
[350, 353],
[350, 375],
[350, 378],
[350, 381],
[351, 375],
[351, 378],
[351, 380],
[351, 381],
[351, 383],
[352, 353],
[352, 354],
[352, 356],
[352, 357],
[352, 358],
[352, 359],
[352, 361],
[352, 362],
[352, 363],
[352, 364],
[352, 371],
[353, 354],
[353, 357],
[353, 362],
[353, 378],
[353, 402],
[354, 358],
[354, 359],
[354, 360],
[354, 362],
[354, 368],
[354, 380],
[355, 366],
[355, 367],
[355, 369],
[356, 357],
[356, 358],
[356, 359],
[356, 364],
[357, 358],
[357, 364],
[358, 359],
[358, 361],
[358, 362],
[358, 364],
[358, 365],
[359, 361],
[359, 362],
[359, 363],
[359, 364],
[359, 367],
[359, 368],
[359, 371],
[360, 361],
[360, 362],
[360, 363],
[360, 365],
[360, 366],
[360, 367],
[360, 368],
[360, 371],
[361, 362],
[361, 363],
[361, 364],
[361, 365],
[362, 363],
[362, 364],
[362, 365],
[362, 368],
[362, 371],
[363, 364],
[363, 365],
[363, 366],
[363, 367],
[363, 368],
[363, 369],
[363, 370],
[363, 371],
[364, 365],
[365, 368],
[366, 367],
[366, 368],
[366, 369],
[366, 370],
[366, 371],
[367, 368],
[367, 370],
[367, 371],
[368, 371],
[369, 370],
[369, 371],
[370, 371],
[372, 373],
[372, 374],
[372, 393],
[373, 374],
[373, 393],
[374, 392],
[375, 376],
[375, 377],
[375, 378],
[375, 379],
[375, 380],
[375, 381],
[375, 383],
[376, 377],
[376, 379],
[377, 379],
[377, 402],
[378, 379],
[378, 380],
[378, 381],
[378, 382],
[378, 383],
[379, 380],
[379, 383],
[380, 381],
[381, 382],
[381, 383],
[382, 383],
[384, 385],
[384, 386],
[384, 387],
[384, 389],
[384, 392],
[384, 394],
[384, 402],
[384, 403],
[384, 411],
[385, 386],
[385, 388],
[385, 390],
[385, 393],
[385, 407],
[385, 409],
[385, 411],
[386, 389],
[386, 390],
[386, 391],
[386, 403],
[386, 408],
[386, 411],
[387, 388],
[387, 389],
[387, 392],
[387, 394],
[387, 402],
[387, 403],
[387, 411],
[388, 393],
[388, 394],
[388, 411],
[389, 390],
[389, 391],
[389, 394],
[389, 403],
[389, 404],
[389, 408],
[389, 411],
[390, 391],
[390, 403],
[390, 409],
[390, 411],
[391, 394],
[391, 403],
[391, 408],
[391, 409],
[391, 410],
[392, 393],
[392, 394],
[392, 402],
[393, 394],
[394, 403],
[394, 408],
[394, 411],
[395, 396],
[395, 397],
[395, 398],
[395, 454],
[396, 397],
[396, 398],
[396, 454],
[397, 398],
[397, 412],
[397, 428],
[397, 446],
[397, 454],
[397, 455],
[398, 454],
[399, 402],
[400, 402],
[400, 404],
[401, 402],
[401, 404],
[402, 403],
[402, 404],
[403, 404],
[403, 407],
[403, 408],
[403, 409],
[403, 411],
[405, 406],
[405, 407],
[406, 407],
[407, 445],
[408, 409],
[408, 410],
[409, 410],
[412, 413],
[412, 428],
[412, 430],
[412, 434],
[412, 435],
[412, 442],
[412, 443],
[412, 454],
[412, 455],
[412, 456],
[413, 414],
[413, 415],
[413, 416],
[413, 419],
[413, 421],
[413, 422],
[413, 425],
[413, 426],
[413, 427],
[413, 428],
[413, 429],
[413, 430],
[413, 435],
[413, 436],
[413, 437],
[413, 443],
[413, 444],
[413, 446],
[413, 455],
[413, 458],
[414, 415],
[414, 416],
[414, 417],
[414, 418],
[414, 420],
[414, 421],
[414, 422],
[414, 423],
[414, 424],
[414, 427],
[414, 429],
[414, 431],
[414, 437],
[414, 449],
[414, 458],
[414, 460],
[415, 421],
[415, 422],
[415, 424],
[415, 427],
[415, 430],
[415, 435],
[415, 436],
[415, 437],
[415, 438],
[415, 440],
[415, 442],
[415, 444],
[415, 451],
[415, 457],
[415, 458],
[416, 417],
[416, 419],
[416, 420],
[416, 421],
[416, 422],
[416, 423],
[416, 426],
[416, 427],
[416, 429],
[416, 430],
[416, 443],
[416, 460],
[417, 418],
[417, 419],
[417, 420],
[417, 421],
[417, 422],
[417, 423],
[417, 431],
[417, 449],
[417, 460],
[418, 423],
[418, 431],
[418, 432],
[418, 460],
[419, 420],
[419, 421],
[419, 422],
[419, 425],
[419, 426],
[419, 427],
[419, 428],
[419, 429],
[419, 430],
[419, 443],
[419, 449],
[419, 458],
[420, 421],
[420, 422],
[420, 423],
[420, 426],
[420, 429],
[420, 431],
[420, 432],
[420, 449],
[420, 458],
[420, 460],
[421, 422],
[421, 423],
[421, 424],
[421, 427],
[421, 429],
[421, 430],
[421, 437],
[421, 443],
[421, 458],
[422, 423],
[422, 424],
[422, 425],
[422, 426],
[422, 427],
[422, 429],
[422, 430],
[422, 437],
[422, 443],
[422, 458],
[423, 424],
[423, 426],
[423, 431],
[423, 432],
[423, 433],
[423, 440],
[423, 449],
[423, 458],
[423, 459],
[423, 460],
[424, 433],
[424, 437],
[424, 438],
[424, 439],
[424, 440],
[424, 444],
[424, 449],
[424, 457],
[424, 458],
[424, 459],
[425, 426],
[425, 427],
[425, 428],
[425, 429],
[425, 458],
[426, 427],
[426, 429],
[426, 449],
[427, 429],
[427, 430],
[427, 435],
[427, 436],
[427, 437],
[427, 443],
[427, 444],
[427, 446],
[427, 458],
[428, 429],
[428, 430],
[428, 435],
[428, 443],
[428, 454],
[428, 455],
[428, 458],
[429, 430],
[429, 435],
[429, 437],
[429, 443],
[430, 435],
[430, 436],
[430, 437],
[430, 438],
[430, 442],
[430, 443],
[430, 444],
[430, 446],
[430, 455],
[430, 458],
[431, 432],
[431, 433],
[431, 449],
[431, 460],
[432, 433],
[432, 449],
[433, 439],
[433, 440],
[433, 449],
[433, 459],
[434, 435],
[434, 455],
[435, 443],
[435, 455],
[436, 437],
[436, 438],
[436, 442],
[436, 443],
[436, 444],
[436, 445],
[436, 446],
[436, 456],
[436, 457],
[437, 438],
[437, 443],
[437, 444],
[437, 458],
[438, 439],
[438, 440],
[438, 444],
[438, 447],
[438, 448],
[438, 449],
[438, 451],
[438, 452],
[438, 457],
[438, 458],
[438, 459],
[439, 440],
[439, 441],
[439, 449],
[439, 451],
[439, 457],
[439, 459],
[440, 441],
[440, 444],
[440, 449],
[440, 452],
[440, 458],
[440, 459],
[441, 448],
[441, 449],
[441, 450],
[441, 452],
[441, 459],
[442, 443],
[442, 444],
[442, 445],
[442, 446],
[442, 455],
[442, 456],
[443, 444],
[443, 455],
[443, 458],
[444, 446],
[444, 456],
[444, 457],
[444, 458],
[445, 446],
[445, 447],
[445, 456],
[446, 447],
[446, 454],
[446, 456],
[447, 451],
[448, 449],
[448, 450],
[448, 451],
[448, 452],
[448, 453],
[448, 459],
[449, 450],
[449, 451],
[449, 452],
[449, 457],
[449, 458],
[449, 459],
[449, 460],
[450, 452],
[450, 453],
[451, 452],
[451, 453],
[451, 459],
[452, 453],
[452, 459],
[454, 455],
[454, 456],
[455, 456],
[457, 458],
[457, 459],
[458, 459],
];
original_rsis = [89, 65, 34, 117, 44, 43, 71, 39, 94, 15, 86, 15, 44, 8, 96, 38, 119, 91, 20, 139, 11, 78, 70, 34, 61, 79, 58, 80, 59, 50, 126, 25, 106, 121, 53, 67, 136, 137, 90, 98, 31, 73, 85, 74, 12, 75, 80, 103, 72, 13, 33, 21, 106, 139, 104, 131, 129, 28, 110, 98, 86, 72, 29, 52, 23, 138, 103, 91, 76, 50, 120, 87, 88, 124, 123, 60, 26, 131, 117, 110, 58, 87, 56, 36, 8, 77, 102, 2, 63, 137, 3, 6, 78, 15, 36, 33, 94, 8, 93, 2, 119, 67, 102, 84, 17, 58, 139, 32, 81, 84, 68, 17, 64, 101, 57, 20, 64, 77, 73, 0, 64, 117, 139, 29, 46, 50, 32, 79, 69, 63, 138, 104, 52, 32, 107, 60, 122, 36, 70, 97, 4, 15, 75, 28, 80, 30, 52, 135, 87, 12, 34, 92, 93, 13, 85, 39, 97, 87, 72, 128, 138, 89, 125, 49, 71, 45, 3, 108, 139, 13, 48, 85, 135, 5, 57, 82, 24, 16, 39, 128, 73, 45, 74, 102, 74, 53, 17, 102, 93, 67, 37, 58, 95, 103, 65, 32, 27, 44, 96, 131, 43, 72, 40, 137, 70, 54, 56, 27, 25, 75, 85, 117, 82, 56, 136, 57, 119, 78, 77, 81, 129, 78, 115, 91, 94, 127, 68, 74, 29, 34, 79, 20, 91, 1, 117, 122, 32, 110, 74, 134, 62, 66, 60, 29, 8, 6, 19, 79, 10, 52, 47, 6, 39, 74, 45, 81, 16, 122, 97, 110, 99, 61, 137, 135, 128, 106, 5, 49, 137, 47, 31, 101, 2, 86, 119, 21, 40, 102, 62, 77, 127, 49, 53, 24, 70, 72, 31, 109, 85, 81, 25, 67, 43, 115, 91, 102, 109, 101, 65, 24, 55, 74, 50, 70, 23, 67, 114, 110, 10, 27, 34, 94, 3, 64, 16, 49, 0, 111, 82, 139, 112, 71, 110, 122, 9, 61, 49, 13, 62, 21, 86, 117, 30, 60, 71, 134, 88, 36, 116, 49, 18, 3, 63, 70, 47, 37, 124, 79, 10, 79, 112, 53, 128, 9, 35, 106, 58, 32, 135, 85, 21, 100, 65, 77, 120, 54, 107, 16, 3, 87, 2, 85, 41, 109, 61, 27, 9, 95, 81, 62, 18, 105, 106, 44, 2, 61, 121, 80, 60, 14, 51, 13, 75, 97, 111, 123, 118, 55, 51, 61, 105, 98, 79, 63, 82, 136, 67, 137, 32, 0, 43, 133, 31, 3, 139, 108, 80, 61, 61, 117, 30, 72, 123, 23, 111, 23, 131, 115, 120, 6, 94, 37, 135, 120, 28, 112, 10, 96, 98, 65, 25, 3, 3, 64, 54, 121, 136, 26, 37, 81, 115, 15, 110, 82, 134, 9, 33, 4, 120, 121, 76];
